NAME : Unnamed.813.tour
COMMENT : Length = 813
COMMENT : Found by LKH [Keld Helsgaun] Wed Oct 22 13:40:33 2014
TYPE : TOUR
DIMENSION : 99
TOUR_SECTION
1
6
7
12
13
73
39
22
20
28
29
15
41
16
17
36
44
47
32
45
31
21
24
34
37
35
26
38
30
43
33
23
18
77
76
92
90
74
27
25
46
91
84
83
82
42
40
59
67
88
98
94
95
81
87
93
78
79
85
80
71
52
69
68
62
65
56
60
53
49
51
70
72
66
50
97
89
96
86
54
57
58
55
48
61
64
63
14
2
19
9
75
5
11
4
99
3
8
10
-1
EOF
